
<<< setup


<<< generate

Version identifier: 22.1.1.0 | 2022-11-28 | 9160aff4d
CPXPARAM_TimeLimit                               1800
Found incumbent of value 0.000000 after 0.00 sec. (3.04 ticks)
Tried aggregator 1 time.
MIP Presolve eliminated 40200 rows and 40000 columns.
Reduced MIP has 59701 rows, 40200 columns, and 199200 nonzeros.
Reduced MIP has 40000 binaries, 200 generals, 0 SOSs, and 0 indicators.
Presolve time = 0.05 sec. (113.51 ticks)
Probing time = 0.02 sec. (14.68 ticks)
Tried aggregator 1 time.
Detecting symmetries...
Reduced MIP has 59701 rows, 40200 columns, and 199200 nonzeros.
Reduced MIP has 40000 binaries, 200 generals, 0 SOSs, and 0 indicators.
Presolve time = 0.07 sec. (120.98 ticks)
Probing time = 0.02 sec. (14.61 ticks)
Clique table members: 2588.
MIP emphasis: balance optimality and feasibility.
MIP search method: dynamic search.
Parallel mode: deterministic, using up to 8 threads.
Root relaxation solution time = 2.02 sec. (5389.55 ticks)

        Nodes                                         Cuts/
   Node  Left     Objective  IInf  Best Integer    Best Bound    ItCnt     Gap

*     0+    0                            0.0000    10575.0000              --- 
*     0+    0                          100.0000    10575.0000              --- 
      0     0     9909.2857  2653      100.0000     9909.2857       17     --- 
*     0+    0                          907.0000     9909.2857           992.53%
      0     0     9907.7692  2879      907.0000      Cuts: 48      825  992.37%
      0     0     9907.7261  3059      907.0000     Cuts: 235     1151  992.36%
      0     0     9907.5784  3090      907.0000      Cuts: 81     1275  992.35%
*     0+    0                          993.0000     9907.5784           897.74%
      0     0        cutoff            993.0000     9907.5784     1275  897.74%
Detecting symmetries...
      0     2     9907.5784  3090      993.0000     9907.5784     1275  897.74%
Elapsed time = 6.18 sec. (13312.29 ticks, tree = 0.02 MB, solutions = 4)
      1     3     9907.5130  2909      993.0000     9907.5435     1595  897.74%
      2     4     9907.0700  3263      993.0000     9907.5435     3079  897.74%
      3     5     9906.7778  3017      993.0000     9907.5435     3702  897.74%
      6     7     9906.1061  2897      993.0000     9907.5435     4016  897.74%
      9     8     9905.7143  3716      993.0000     9907.5000     8353  897.73%
     11    13     9906.8000  4016      993.0000     9907.1500    12248  897.70%
*    12+    5                         1032.0000     9907.1500           860.00%
     14    15     9905.0000  2884     1032.0000     9907.1500    13805  860.00%
     18    10     9905.4615  3855     1032.0000     9907.1500     9498  860.00%
     23    20     9905.0000  2782     1032.0000     9907.1500    16875  860.00%
     42     9     9904.5833  3977     1032.0000     9907.1500     9496  860.00%
Elapsed time = 9.91 sec. (18245.65 ticks, tree = 0.02 MB, solutions = 5)
     65    56     9905.1111  3510     1032.0000     9907.1500    41798  860.00%
     88    68     9905.3617  4950     1032.0000     9907.1500    51790  860.00%
    102    87     9902.5283  3777     1032.0000     9907.1500    63973  860.00%
    134   117     9905.0000  1884     1032.0000     9907.1500    72801  860.00%
    183   161     9905.0000  1116     1032.0000     9907.1500    85233  860.00%
    241   212     9905.0000   548     1032.0000     9907.1500    91285  860.00%
    283   235     9891.8283  1204     1032.0000     9907.1500   110187  860.00%
    311   260     9873.0000  1039     1032.0000     9907.1500   117370  860.00%
    367   276     9871.7234   598     1032.0000     9907.1500   119012  860.00%
    425   359     9905.0000    80     1032.0000     9907.1500   123928  860.00%
Elapsed time = 17.99 sec. (28038.90 ticks, tree = 8.05 MB, solutions = 5)
*   473   306      integral     0     9905.0000     9907.1500   123976    0.02%
    489   359     9893.8780  3522     9905.0000     9907.1500   137334    0.02%
    493    76     9906.0000  4121     9905.0000     9906.9462   157927    0.02%
    504    43     9906.0000  3896     9905.0000     9906.9462   167326    0.02%
    531    50     9906.0000  3869     9905.0000     9906.9462   168522    0.02%
    590    43     9906.0000  3287     9905.0000     9906.0000   192682    0.01%
    664    83     9906.0000  3364     9905.0000     9906.0000   197222    0.01%
    754   100     9906.0000  3349     9905.0000     9906.0000   200812    0.01%
    903   215     9906.0000  1077     9905.0000     9906.0000   216556    0.01%
   1080   250     9906.0000   665     9905.0000     9906.0000   216795    0.01%
Elapsed time = 24.84 sec. (37446.78 ticks, tree = 3.05 MB, solutions = 6)
   1304   320     9906.0000   665     9905.0000     9906.0000   222224    0.01%
*  1534   479      integral     0     9906.0000     9906.0000   227496    0.00%
   1562   673     9906.0000   313     9906.0000     9906.0000   230533    0.00%
   1720   702     9906.0000   756     9906.0000     9906.0000   233446    0.00%
   1744   444     9906.0000   633     9906.0000     9906.0000   225844    0.00%

Clique cuts applied:  2
Cover cuts applied:  10
Flow cuts applied:  4
Mixed integer rounding cuts applied:  132
Zero-half cuts applied:  41
Gomory fractional cuts applied:  12

Root node processing (before b&c):
  Real time             =    6.07 sec. (12986.31 ticks)
Parallel b&c, 8 threads:
  Real time             =   21.57 sec. (29139.77 ticks)
  Sync time (average)   =    5.37 sec.
  Wait time (average)   =    0.00 sec.
                          ------------
Total (root+branch&cut) =   27.64 sec. (42126.08 ticks)

<<< solve


OBJECTIVE: 9906

<<< post process


<<< done

